c Reduced graph for miles1000_1 generated by Cyril Grelier
p edge 124 3101
e 1 2
e 1 3
e 1 4
e 1 5
e 1 6
e 1 7
e 1 8
e 1 9
e 1 10
e 1 11
e 1 12
e 1 13
e 1 14
e 1 15
e 1 16
e 1 17
e 1 18
e 1 19
e 1 20
e 1 21
e 1 22
e 1 23
e 1 24
e 1 25
e 1 26
e 1 27
e 1 28
e 1 29
e 1 30
e 1 31
e 1 32
e 1 33
e 1 34
e 1 35
e 1 36
e 1 37
e 1 38
e 1 39
e 1 40
e 1 41
e 1 42
e 1 43
e 1 44
e 1 45
e 1 46
e 1 47
e 1 48
e 1 49
e 1 50
e 1 51
e 1 52
e 1 53
e 1 54
e 1 55
e 1 56
e 1 57
e 1 58
e 1 59
e 1 60
e 1 61
e 1 62
e 1 63
e 1 64
e 1 65
e 1 66
e 1 67
e 1 68
e 1 69
e 1 70
e 1 71
e 1 72
e 1 73
e 1 74
e 1 75
e 1 76
e 1 81
e 1 82
e 1 83
e 1 84
e 1 85
e 1 86
e 1 87
e 1 88
e 1 96
e 1 97
e 1 100
e 2 3
e 2 4
e 2 5
e 2 6
e 2 7
e 2 8
e 2 9
e 2 10
e 2 11
e 2 12
e 2 13
e 2 14
e 2 15
e 2 16
e 2 17
e 2 18
e 2 19
e 2 20
e 2 21
e 2 22
e 2 23
e 2 24
e 2 25
e 2 26
e 2 27
e 2 28
e 2 29
e 2 30
e 2 31
e 2 32
e 2 33
e 2 34
e 2 35
e 2 36
e 2 37
e 2 38
e 2 39
e 2 40
e 2 41
e 2 42
e 2 43
e 2 44
e 2 45
e 2 46
e 2 47
e 2 48
e 2 49
e 2 50
e 2 51
e 2 52
e 2 53
e 2 54
e 2 55
e 2 56
e 2 57
e 2 58
e 2 59
e 2 60
e 2 61
e 2 62
e 2 63
e 2 64
e 2 65
e 2 66
e 2 67
e 2 68
e 2 69
e 2 70
e 2 71
e 2 72
e 2 73
e 2 74
e 2 75
e 2 76
e 2 77
e 2 78
e 2 79
e 2 80
e 2 81
e 2 84
e 2 85
e 2 87
e 2 88
e 2 101
e 2 116
e 3 4
e 3 5
e 3 6
e 3 7
e 3 8
e 3 9
e 3 10
e 3 11
e 3 12
e 3 13
e 3 14
e 3 15
e 3 16
e 3 17
e 3 18
e 3 19
e 3 20
e 3 21
e 3 22
e 3 23
e 3 24
e 3 25
e 3 26
e 3 27
e 3 28
e 3 29
e 3 30
e 3 31
e 3 32
e 3 33
e 3 34
e 3 35
e 3 36
e 3 37
e 3 38
e 3 39
e 3 40
e 3 41
e 3 42
e 3 43
e 3 44
e 3 45
e 3 46
e 3 47
e 3 48
e 3 49
e 3 50
e 3 51
e 3 52
e 3 53
e 3 54
e 3 55
e 3 56
e 3 57
e 3 58
e 3 59
e 3 60
e 3 61
e 3 62
e 3 63
e 3 64
e 3 65
e 3 66
e 3 67
e 3 68
e 3 69
e 3 70
e 3 71
e 3 72
e 3 73
e 3 74
e 3 75
e 3 76
e 3 77
e 3 81
e 3 82
e 3 83
e 3 84
e 3 85
e 3 86
e 3 87
e 3 88
e 3 95
e 4 5
e 4 6
e 4 7
e 4 8
e 4 9
e 4 10
e 4 11
e 4 12
e 4 13
e 4 14
e 4 15
e 4 16
e 4 17
e 4 18
e 4 19
e 4 20
e 4 21
e 4 22
e 4 23
e 4 24
e 4 25
e 4 26
e 4 27
e 4 28
e 4 29
e 4 30
e 4 31
e 4 32
e 4 33
e 4 34
e 4 35
e 4 36
e 4 37
e 4 38
e 4 39
e 4 40
e 4 41
e 4 42
e 4 43
e 4 44
e 4 45
e 4 46
e 4 47
e 4 48
e 4 49
e 4 50
e 4 51
e 4 52
e 4 53
e 4 54
e 4 55
e 4 56
e 4 57
e 4 58
e 4 59
e 4 60
e 4 61
e 4 62
e 4 63
e 4 64
e 4 65
e 4 66
e 4 67
e 4 68
e 4 69
e 4 70
e 4 71
e 4 72
e 4 73
e 4 74
e 4 75
e 4 76
e 4 77
e 4 78
e 4 79
e 4 80
e 4 81
e 4 84
e 4 85
e 4 87
e 4 88
e 5 6
e 5 7
e 5 8
e 5 9
e 5 10
e 5 11
e 5 12
e 5 13
e 5 14
e 5 15
e 5 16
e 5 17
e 5 18
e 5 19
e 5 20
e 5 21
e 5 22
e 5 23
e 5 24
e 5 25
e 5 26
e 5 27
e 5 28
e 5 29
e 5 30
e 5 31
e 5 32
e 5 33
e 5 34
e 5 35
e 5 36
e 5 37
e 5 38
e 5 39
e 5 40
e 5 41
e 5 42
e 5 43
e 5 44
e 5 45
e 5 46
e 5 47
e 5 48
e 5 49
e 5 50
e 5 51
e 5 52
e 5 53
e 5 54
e 5 55
e 5 56
e 5 57
e 5 58
e 5 59
e 5 60
e 5 61
e 5 62
e 5 63
e 5 64
e 5 65
e 5 66
e 5 67
e 5 68
e 5 69
e 5 70
e 5 71
e 5 72
e 5 73
e 5 74
e 5 75
e 5 76
e 5 77
e 5 78
e 5 79
e 5 80
e 5 81
e 5 84
e 5 95
e 6 7
e 6 8
e 6 9
e 6 10
e 6 11
e 6 12
e 6 13
e 6 14
e 6 15
e 6 16
e 6 17
e 6 18
e 6 19
e 6 20
e 6 21
e 6 22
e 6 23
e 6 24
e 6 25
e 6 26
e 6 27
e 6 28
e 6 29
e 6 30
e 6 31
e 6 32
e 6 33
e 6 34
e 6 35
e 6 36
e 6 37
e 6 38
e 6 39
e 6 40
e 6 41
e 6 42
e 6 43
e 6 44
e 6 45
e 6 46
e 6 47
e 6 48
e 6 49
e 6 50
e 6 51
e 6 52
e 6 53
e 6 54
e 6 55
e 6 56
e 6 57
e 6 58
e 6 59
e 6 60
e 6 61
e 6 62
e 6 63
e 6 64
e 6 65
e 6 66
e 6 67
e 6 68
e 6 69
e 6 70
e 6 71
e 6 72
e 6 73
e 6 74
e 6 76
e 6 77
e 6 78
e 6 79
e 6 80
e 6 81
e 6 82
e 6 84
e 6 95
e 7 8
e 7 9
e 7 10
e 7 11
e 7 12
e 7 13
e 7 14
e 7 15
e 7 16
e 7 17
e 7 18
e 7 19
e 7 20
e 7 21
e 7 22
e 7 23
e 7 24
e 7 25
e 7 26
e 7 27
e 7 28
e 7 29
e 7 30
e 7 31
e 7 32
e 7 33
e 7 34
e 7 35
e 7 36
e 7 37
e 7 38
e 7 39
e 7 40
e 7 41
e 7 42
e 7 43
e 7 44
e 7 45
e 7 46
e 7 47
e 7 48
e 7 49
e 7 50
e 7 51
e 7 52
e 7 53
e 7 54
e 7 55
e 7 56
e 7 57
e 7 58
e 7 59
e 7 60
e 7 61
e 7 62
e 7 63
e 7 64
e 7 65
e 7 66
e 7 67
e 7 68
e 7 69
e 7 71
e 7 72
e 7 73
e 7 74
e 7 75
e 7 76
e 7 77
e 7 78
e 7 79
e 7 80
e 7 81
e 7 84
e 7 88
e 8 9
e 8 10
e 8 11
e 8 12
e 8 13
e 8 14
e 8 15
e 8 16
e 8 17
e 8 18
e 8 19
e 8 20
e 8 21
e 8 22
e 8 23
e 8 24
e 8 25
e 8 26
e 8 27
e 8 28
e 8 29
e 8 30
e 8 31
e 8 32
e 8 33
e 8 34
e 8 35
e 8 36
e 8 37
e 8 38
e 8 39
e 8 40
e 8 41
e 8 42
e 8 43
e 8 44
e 8 45
e 8 46
e 8 47
e 8 48
e 8 49
e 8 50
e 8 51
e 8 52
e 8 53
e 8 54
e 8 55
e 8 56
e 8 57
e 8 58
e 8 59
e 8 60
e 8 61
e 8 62
e 8 63
e 8 64
e 8 65
e 8 66
e 8 67
e 8 68
e 8 69
e 8 70
e 8 71
e 8 72
e 8 73
e 8 74
e 8 75
e 8 76
e 8 77
e 8 78
e 8 79
e 8 80
e 8 84
e 8 95
e 9 10
e 9 11
e 9 12
e 9 13
e 9 14
e 9 15
e 9 16
e 9 17
e 9 18
e 9 19
e 9 20
e 9 21
e 9 22
e 9 23
e 9 24
e 9 25
e 9 26
e 9 27
e 9 28
e 9 29
e 9 30
e 9 31
e 9 32
e 9 33
e 9 34
e 9 35
e 9 36
e 9 37
e 9 38
e 9 39
e 9 40
e 9 41
e 9 42
e 9 43
e 9 44
e 9 45
e 9 46
e 9 47
e 9 48
e 9 49
e 9 50
e 9 51
e 9 52
e 9 53
e 9 54
e 9 55
e 9 56
e 9 57
e 9 58
e 9 59
e 9 60
e 9 61
e 9 62
e 9 63
e 9 64
e 9 65
e 9 66
e 9 67
e 9 68
e 9 69
e 9 71
e 9 72
e 9 73
e 9 74
e 9 75
e 9 76
e 9 77
e 9 78
e 9 79
e 9 80
e 9 88
e 10 11
e 10 12
e 10 13
e 10 14
e 10 15
e 10 16
e 10 17
e 10 18
e 10 19
e 10 20
e 10 21
e 10 22
e 10 23
e 10 24
e 10 25
e 10 26
e 10 27
e 10 28
e 10 29
e 10 30
e 10 31
e 10 32
e 10 33
e 10 34
e 10 35
e 10 36
e 10 37
e 10 38
e 10 39
e 10 40
e 10 41
e 10 42
e 10 43
e 10 44
e 10 45
e 10 46
e 10 47
e 10 48
e 10 49
e 10 50
e 10 51
e 10 52
e 10 53
e 10 54
e 10 56
e 10 58
e 10 59
e 10 60
e 10 61
e 10 62
e 10 63
e 10 64
e 10 65
e 10 66
e 10 67
e 10 70
e 10 71
e 10 72
e 10 73
e 10 74
e 10 76
e 10 77
e 10 78
e 10 80
e 10 81
e 10 82
e 10 84
e 10 85
e 10 95
e 11 12
e 11 13
e 11 14
e 11 15
e 11 16
e 11 17
e 11 18
e 11 19
e 11 20
e 11 21
e 11 22
e 11 23
e 11 24
e 11 25
e 11 26
e 11 27
e 11 28
e 11 29
e 11 30
e 11 31
e 11 32
e 11 33
e 11 34
e 11 35
e 11 36
e 11 37
e 11 38
e 11 39
e 11 40
e 11 41
e 11 42
e 11 43
e 11 44
e 11 45
e 11 46
e 11 47
e 11 48
e 11 49
e 11 50
e 11 51
e 11 52
e 11 53
e 11 54
e 11 55
e 11 56
e 11 57
e 11 58
e 11 59
e 11 60
e 11 61
e 11 62
e 11 63
e 11 64
e 11 65
e 11 67
e 11 68
e 11 69
e 11 71
e 11 72
e 11 74
e 11 75
e 11 76
e 11 77
e 11 78
e 11 79
e 11 80
e 11 84
e 12 13
e 12 14
e 12 15
e 12 16
e 12 17
e 12 18
e 12 19
e 12 20
e 12 21
e 12 22
e 12 23
e 12 24
e 12 25
e 12 26
e 12 27
e 12 28
e 12 29
e 12 30
e 12 31
e 12 32
e 12 33
e 12 34
e 12 35
e 12 36
e 12 37
e 12 38
e 12 39
e 12 40
e 12 41
e 12 42
e 12 43
e 12 44
e 12 45
e 12 46
e 12 47
e 12 48
e 12 49
e 12 50
e 12 51
e 12 52
e 12 53
e 12 54
e 12 55
e 12 56
e 12 57
e 12 58
e 12 59
e 12 60
e 12 61
e 12 62
e 12 63
e 12 64
e 12 65
e 12 67
e 12 68
e 12 69
e 12 71
e 12 74
e 12 75
e 12 76
e 12 77
e 12 78
e 12 79
e 12 80
e 13 14
e 13 15
e 13 16
e 13 17
e 13 18
e 13 19
e 13 20
e 13 21
e 13 22
e 13 23
e 13 24
e 13 25
e 13 26
e 13 27
e 13 28
e 13 29
e 13 30
e 13 31
e 13 32
e 13 33
e 13 34
e 13 35
e 13 36
e 13 37
e 13 38
e 13 39
e 13 40
e 13 41
e 13 42
e 13 43
e 13 44
e 13 45
e 13 46
e 13 51
e 13 52
e 13 53
e 13 54
e 13 56
e 13 58
e 13 60
e 13 62
e 13 66
e 13 67
e 13 68
e 13 69
e 13 70
e 13 72
e 13 73
e 13 75
e 13 76
e 13 81
e 13 82
e 13 83
e 13 84
e 13 85
e 13 86
e 13 87
e 13 91
e 13 92
e 13 95
e 13 96
e 13 97
e 13 100
e 14 15
e 14 16
e 14 17
e 14 18
e 14 19
e 14 20
e 14 21
e 14 22
e 14 23
e 14 24
e 14 25
e 14 26
e 14 27
e 14 28
e 14 29
e 14 30
e 14 31
e 14 32
e 14 33
e 14 34
e 14 35
e 14 37
e 14 38
e 14 39
e 14 40
e 14 41
e 14 43
e 14 44
e 14 45
e 14 46
e 14 47
e 14 48
e 14 49
e 14 50
e 14 51
e 14 52
e 14 53
e 14 55
e 14 56
e 14 57
e 14 59
e 14 60
e 14 61
e 14 62
e 14 63
e 14 64
e 14 65
e 14 66
e 14 68
e 14 69
e 14 71
e 14 74
e 14 75
e 14 77
e 14 78
e 14 79
e 14 80
e 14 88
e 14 101
e 14 116
e 15 16
e 15 17
e 15 18
e 15 19
e 15 20
e 15 21
e 15 22
e 15 23
e 15 24
e 15 25
e 15 26
e 15 27
e 15 28
e 15 29
e 15 30
e 15 31
e 15 32
e 15 33
e 15 34
e 15 35
e 15 36
e 15 37
e 15 38
e 15 39
e 15 40
e 15 41
e 15 42
e 15 43
e 15 44
e 15 45
e 15 46
e 15 47
e 15 48
e 15 49
e 15 50
e 15 51
e 15 53
e 15 54
e 15 55
e 15 56
e 15 57
e 15 59
e 15 60
e 15 61
e 15 62
e 15 63
e 15 64
e 15 65
e 15 67
e 15 68
e 15 69
e 15 71
e 15 74
e 15 75
e 15 76
e 15 77
e 15 78
e 15 79
e 15 80
e 16 17
e 16 18
e 16 19
e 16 20
e 16 21
e 16 22
e 16 23
e 16 24
e 16 25
e 16 26
e 16 27
e 16 28
e 16 29
e 16 30
e 16 31
e 16 32
e 16 33
e 16 34
e 16 35
e 16 36
e 16 37
e 16 38
e 16 39
e 16 40
e 16 41
e 16 42
e 16 43
e 16 44
e 16 45
e 16 46
e 16 47
e 16 48
e 16 49
e 16 50
e 16 51
e 16 53
e 16 54
e 16 55
e 16 56
e 16 57
e 16 59
e 16 60
e 16 61
e 16 62
e 16 63
e 16 64
e 16 65
e 16 67
e 16 68
e 16 69
e 16 71
e 16 74
e 16 75
e 16 77
e 16 78
e 16 79
e 16 80
e 16 88
e 17 18
e 17 19
e 17 20
e 17 21
e 17 22
e 17 23
e 17 24
e 17 25
e 17 26
e 17 27
e 17 28
e 17 29
e 17 30
e 17 31
e 17 32
e 17 33
e 17 34
e 17 35
e 17 36
e 17 37
e 17 38
e 17 39
e 17 40
e 17 41
e 17 42
e 17 43
e 17 44
e 17 45
e 17 46
e 17 47
e 17 48
e 17 49
e 17 50
e 17 51
e 17 53
e 17 54
e 17 55
e 17 56
e 17 57
e 17 59
e 17 60
e 17 61
e 17 62
e 17 63
e 17 64
e 17 65
e 17 67
e 17 68
e 17 69
e 17 71
e 17 74
e 17 75
e 17 77
e 17 78
e 17 79
e 17 80
e 17 88
e 18 19
e 18 20
e 18 21
e 18 22
e 18 23
e 18 24
e 18 25
e 18 26
e 18 27
e 18 28
e 18 29
e 18 30
e 18 31
e 18 32
e 18 33
e 18 34
e 18 35
e 18 36
e 18 37
e 18 38
e 18 39
e 18 40
e 18 41
e 18 42
e 18 43
e 18 44
e 18 46
e 18 47
e 18 48
e 18 49
e 18 50
e 18 52
e 18 53
e 18 54
e 18 55
e 18 57
e 18 58
e 18 60
e 18 62
e 18 66
e 18 67
e 18 68
e 18 69
e 18 72
e 18 73
e 18 75
e 18 81
e 18 85
e 18 87
e 18 88
e 18 96
e 18 97
e 18 100
e 18 101
e 18 116
e 19 20
e 19 21
e 19 22
e 19 23
e 19 24
e 19 25
e 19 26
e 19 27
e 19 28
e 19 29
e 19 30
e 19 31
e 19 32
e 19 33
e 19 34
e 19 35
e 19 36
e 19 37
e 19 39
e 19 40
e 19 41
e 19 42
e 19 44
e 19 45
e 19 46
e 19 51
e 19 52
e 19 53
e 19 54
e 19 57
e 19 58
e 19 60
e 19 62
e 19 66
e 19 67
e 19 68
e 19 69
e 19 70
e 19 72
e 19 73
e 19 75
e 19 76
e 19 81
e 19 82
e 19 83
e 19 84
e 19 85
e 19 86
e 19 87
e 19 91
e 19 92
e 19 96
e 19 97
e 19 100
e 20 21
e 20 22
e 20 23
e 20 24
e 20 25
e 20 26
e 20 27
e 20 28
e 20 29
e 20 30
e 20 31
e 20 32
e 20 33
e 20 34
e 20 35
e 20 36
e 20 37
e 20 38
e 20 39
e 20 40
e 20 41
e 20 42
e 20 43
e 20 44
e 20 45
e 20 46
e 20 47
e 20 48
e 20 49
e 20 50
e 20 51
e 20 53
e 20 54
e 20 55
e 20 56
e 20 58
e 20 59
e 20 60
e 20 61
e 20 62
e 20 63
e 20 64
e 20 65
e 20 67
e 20 71
e 20 74
e 20 76
e 20 77
e 20 78
e 20 79
e 20 80
e 20 84
e 21 22
e 21 23
e 21 24
e 21 25
e 21 26
e 21 27
e 21 28
e 21 29
e 21 30
e 21 31
e 21 32
e 21 33
e 21 34
e 21 35
e 21 36
e 21 37
e 21 38
e 21 39
e 21 41
e 21 42
e 21 43
e 21 45
e 21 46
e 21 48
e 21 51
e 21 52
e 21 53
e 21 54
e 21 56
e 21 58
e 21 60
e 21 62
e 21 63
e 21 64
e 21 66
e 21 67
e 21 70
e 21 72
e 21 73
e 21 76
e 21 81
e 21 82
e 21 83
e 21 84
e 21 85
e 21 86
e 21 87
e 21 94
e 21 95
e 21 99
e 21 112
e 22 23
e 22 24
e 22 25
e 22 26
e 22 27
e 22 28
e 22 29
e 22 30
e 22 31
e 22 32
e 22 33
e 22 34
e 22 35
e 22 36
e 22 37
e 22 38
e 22 39
e 22 41
e 22 42
e 22 43
e 22 45
e 22 46
e 22 47
e 22 48
e 22 50
e 22 51
e 22 52
e 22 53
e 22 54
e 22 56
e 22 58
e 22 60
e 22 61
e 22 62
e 22 63
e 22 64
e 22 65
e 22 66
e 22 67
e 22 70
e 22 71
e 22 72
e 22 73
e 22 74
e 22 76
e 22 82
e 22 84
e 22 95
e 22 99
e 23 24
e 23 25
e 23 26
e 23 27
e 23 28
e 23 29
e 23 30
e 23 31
e 23 32
e 23 33
e 23 34
e 23 35
e 23 36
e 23 38
e 23 39
e 23 40
e 23 41
e 23 42
e 23 43
e 23 44
e 23 45
e 23 46
e 23 47
e 23 48
e 23 49
e 23 50
e 23 51
e 23 54
e 23 55
e 23 56
e 23 57
e 23 59
e 23 60
e 23 61
e 23 62
e 23 63
e 23 64
e 23 65
e 23 67
e 23 68
e 23 69
e 23 71
e 23 74
e 23 77
e 23 78
e 23 79
e 23 80
e 24 25
e 24 26
e 24 27
e 24 28
e 24 29
e 24 30
e 24 31
e 24 32
e 24 33
e 24 34
e 24 35
e 24 36
e 24 38
e 24 39
e 24 40
e 24 43
e 24 44
e 24 45
e 24 46
e 24 47
e 24 48
e 24 49
e 24 50
e 24 51
e 24 55
e 24 56
e 24 57
e 24 59
e 24 60
e 24 61
e 24 62
e 24 63
e 24 64
e 24 65
e 24 67
e 24 68
e 24 69
e 24 71
e 24 74
e 24 75
e 24 77
e 24 78
e 24 79
e 24 80
e 24 88
e 25 26
e 25 27
e 25 28
e 25 29
e 25 30
e 25 31
e 25 32
e 25 33
e 25 34
e 25 35
e 25 37
e 25 38
e 25 39
e 25 40
e 25 41
e 25 43
e 25 44
e 25 46
e 25 47
e 25 48
e 25 49
e 25 50
e 25 52
e 25 53
e 25 55
e 25 57
e 25 58
e 25 59
e 25 61
e 25 66
e 25 68
e 25 69
e 25 72
e 25 73
e 25 75
e 25 81
e 25 85
e 25 87
e 25 88
e 25 96
e 25 97
e 25 100
e 25 101
e 25 116
e 26 27
e 26 28
e 26 29
e 26 30
e 26 31
e 26 32
e 26 33
e 26 35
e 26 38
e 26 40
e 26 41
e 26 43
e 26 44
e 26 45
e 26 46
e 26 47
e 26 48
e 26 49
e 26 50
e 26 51
e 26 52
e 26 55
e 26 56
e 26 57
e 26 59
e 26 61
e 26 62
e 26 63
e 26 64
e 26 65
e 26 68
e 26 69
e 26 71
e 26 74
e 26 75
e 26 77
e 26 78
e 26 79
e 26 80
e 26 88
e 26 101
e 26 116
e 27 28
e 27 31
e 27 32
e 27 34
e 27 35
e 27 36
e 27 37
e 27 39
e 27 41
e 27 42
e 27 45
e 27 46
e 27 51
e 27 52
e 27 53
e 27 54
e 27 58
e 27 60
e 27 62
e 27 66
e 27 67
e 27 70
e 27 72
e 27 73
e 27 76
e 27 81
e 27 82
e 27 83
e 27 84
e 27 85
e 27 86
e 27 87
e 27 89
e 27 91
e 27 92
e 27 94
e 27 95
e 27 96
e 27 97
e 27 99
e 27 100
e 28 29
e 28 30
e 28 31
e 28 32
e 28 33
e 28 34
e 28 36
e 28 37
e 28 38
e 28 39
e 28 41
e 28 42
e 28 43
e 28 45
e 28 46
e 28 48
e 28 50
e 28 51
e 28 52
e 28 53
e 28 54
e 28 56
e 28 58
e 28 60
e 28 62
e 28 63
e 28 64
e 28 65
e 28 67
e 28 70
e 28 71
e 28 72
e 28 74
e 28 76
e 28 82
e 28 84
e 28 95
e 28 99
e 28 112
e 29 30
e 29 31
e 29 32
e 29 33
e 29 35
e 29 38
e 29 40
e 29 41
e 29 43
e 29 44
e 29 45
e 29 46
e 29 47
e 29 48
e 29 49
e 29 50
e 29 51
e 29 55
e 29 56
e 29 57
e 29 59
e 29 61
e 29 62
e 29 63
e 29 64
e 29 65
e 29 68
e 29 69
e 29 71
e 29 74
e 29 75
e 29 77
e 29 78
e 29 79
e 29 80
e 29 88
e 29 101
e 29 116
e 30 31
e 30 32
e 30 33
e 30 35
e 30 38
e 30 40
e 30 41
e 30 43
e 30 44
e 30 45
e 30 47
e 30 48
e 30 49
e 30 50
e 30 51
e 30 52
e 30 55
e 30 56
e 30 57
e 30 59
e 30 61
e 30 63
e 30 64
e 30 65
e 30 66
e 30 68
e 30 69
e 30 71
e 30 74
e 30 75
e 30 77
e 30 78
e 30 79
e 30 80
e 30 88
e 30 101
e 30 116
e 31 32
e 31 33
e 31 34
e 31 36
e 31 37
e 31 38
e 31 39
e 31 42
e 31 43
e 31 45
e 31 46
e 31 47
e 31 48
e 31 49
e 31 50
e 31 51
e 31 54
e 31 56
e 31 59
e 31 60
e 31 61
e 31 62
e 31 63
e 31 64
e 31 65
e 31 67
e 31 71
e 31 74
e 31 76
e 31 77
e 31 78
e 31 79
e 31 80
e 31 84
e 31 95
e 32 33
e 32 35
e 32 36
e 32 38
e 32 39
e 32 40
e 32 43
e 32 44
e 32 45
e 32 46
e 32 47
e 32 48
e 32 49
e 32 50
e 32 51
e 32 55
e 32 56
e 32 57
e 32 59
e 32 60
e 32 61
e 32 62
e 32 63
e 32 64
e 32 65
e 32 67
e 32 68
e 32 71
e 32 74
e 32 77
e 32 78
e 32 79
e 32 80
e 33 35
e 33 38
e 33 39
e 33 40
e 33 43
e 33 44
e 33 45
e 33 46
e 33 47
e 33 48
e 33 49
e 33 50
e 33 51
e 33 55
e 33 56
e 33 57
e 33 59
e 33 61
e 33 62
e 33 63
e 33 64
e 33 65
e 33 68
e 33 69
e 33 71
e 33 74
e 33 75
e 33 77
e 33 78
e 33 79
e 33 80
e 33 88
e 33 101
e 34 35
e 34 36
e 34 37
e 34 39
e 34 41
e 34 42
e 34 45
e 34 46
e 34 52
e 34 53
e 34 54
e 34 58
e 34 60
e 34 62
e 34 66
e 34 67
e 34 70
e 34 72
e 34 73
e 34 76
e 34 81
e 34 82
e 34 83
e 34 84
e 34 85
e 34 86
e 34 87
e 34 89
e 34 91
e 34 92
e 34 94
e 34 95
e 34 96
e 34 97
e 34 99
e 34 100
e 35 37
e 35 38
e 35 40
e 35 41
e 35 44
e 35 47
e 35 48
e 35 49
e 35 50
e 35 52
e 35 53
e 35 55
e 35 57
e 35 58
e 35 59
e 35 66
e 35 68
e 35 69
e 35 72
e 35 73
e 35 75
e 35 81
e 35 85
e 35 87
e 35 88
e 35 96
e 35 97
e 35 100
e 35 101
e 35 116
e 36 37
e 36 39
e 36 41
e 36 42
e 36 45
e 36 46
e 36 52
e 36 53
e 36 54
e 36 58
e 36 60
e 36 62
e 36 66
e 36 67
e 36 70
e 36 72
e 36 73
e 36 76
e 36 81
e 36 82
e 36 83
e 36 84
e 36 85
e 36 86
e 36 87
e 36 89
e 36 90
e 36 91
e 36 92
e 36 94
e 36 95
e 36 96
e 36 99
e 36 112
e 37 39
e 37 41
e 37 42
e 37 46
e 37 52
e 37 53
e 37 54
e 37 58
e 37 60
e 37 62
e 37 66
e 37 67
e 37 70
e 37 72
e 37 73
e 37 76
e 37 81
e 37 82
e 37 83
e 37 84
e 37 85
e 37 86
e 37 87
e 37 89
e 37 90
e 37 91
e 37 92
e 37 94
e 37 95
e 37 96
e 37 97
e 37 99
e 37 100
e 38 40
e 38 43
e 38 44
e 38 45
e 38 46
e 38 47
e 38 48
e 38 49
e 38 50
e 38 51
e 38 55
e 38 56
e 38 57
e 38 59
e 38 61
e 38 63
e 38 64
e 38 65
e 38 68
e 38 69
e 38 71
e 38 74
e 38 75
e 38 77
e 38 78
e 38 79
e 38 80
e 38 88
e 38 101
e 39 42
e 39 43
e 39 45
e 39 46
e 39 51
e 39 52
e 39 53
e 39 54
e 39 56
e 39 58
e 39 60
e 39 62
e 39 66
e 39 67
e 39 70
e 39 72
e 39 73
e 39 76
e 39 81
e 39 82
e 39 83
e 39 84
e 39 85
e 39 86
e 39 94
e 39 95
e 39 99
e 39 112
e 40 41
e 40 43
e 40 44
e 40 47
e 40 48
e 40 49
e 40 50
e 40 51
e 40 52
e 40 55
e 40 56
e 40 57
e 40 59
e 40 61
e 40 63
e 40 64
e 40 65
e 40 66
e 40 68
e 40 69
e 40 71
e 40 74
e 40 75
e 40 77
e 40 78
e 40 79
e 40 80
e 40 88
e 40 101
e 40 116
e 41 42
e 41 44
e 41 46
e 41 49
e 41 52
e 41 53
e 41 55
e 41 57
e 41 58
e 41 66
e 41 68
e 41 69
e 41 72
e 41 73
e 41 75
e 41 81
e 41 83
e 41 85
e 41 87
e 41 88
e 41 92
e 41 96
e 41 97
e 41 100
e 41 101
e 41 116
e 42 45
e 42 46
e 42 52
e 42 53
e 42 54
e 42 58
e 42 60
e 42 62
e 42 66
e 42 67
e 42 70
e 42 72
e 42 73
e 42 76
e 42 81
e 42 82
e 42 83
e 42 84
e 42 85
e 42 86
e 42 87
e 42 89
e 42 90
e 42 91
e 42 92
e 42 94
e 42 95
e 42 96
e 42 99
e 42 112
e 43 44
e 43 45
e 43 46
e 43 47
e 43 48
e 43 49
e 43 50
e 43 51
e 43 55
e 43 56
e 43 57
e 43 59
e 43 61
e 43 62
e 43 63
e 43 64
e 43 65
e 43 68
e 43 69
e 43 71
e 43 74
e 43 77
e 43 78
e 43 79
e 43 80
e 44 47
e 44 48
e 44 49
e 44 50
e 44 52
e 44 55
e 44 56
e 44 57
e 44 59
e 44 61
e 44 63
e 44 64
e 44 65
e 44 66
e 44 68
e 44 69
e 44 71
e 44 73
e 44 75
e 44 78
e 44 79
e 44 81
e 44 87
e 44 88
e 44 101
e 44 116
e 45 46
e 45 47
e 45 48
e 45 50
e 45 51
e 45 54
e 45 56
e 45 60
e 45 61
e 45 62
e 45 63
e 45 64
e 45 65
e 45 67
e 45 71
e 45 74
e 45 76
e 45 77
e 45 78
e 45 80
e 45 84
e 45 95
e 46 48
e 46 51
e 46 53
e 46 54
e 46 56
e 46 58
e 46 60
e 46 62
e 46 64
e 46 67
e 46 70
e 46 72
e 46 76
e 46 82
e 46 84
e 46 95
e 46 99
e 46 112
e 47 48
e 47 49
e 47 50
e 47 51
e 47 55
e 47 56
e 47 57
e 47 59
e 47 61
e 47 63
e 47 64
e 47 65
e 47 68
e 47 69
e 47 71
e 47 74
e 47 75
e 47 77
e 47 78
e 47 79
e 47 80
e 47 88
e 47 101
e 47 116
e 48 49
e 48 50
e 48 51
e 48 55
e 48 56
e 48 57
e 48 59
e 48 61
e 48 63
e 48 64
e 48 65
e 48 68
e 48 69
e 48 71
e 48 74
e 48 77
e 48 78
e 48 79
e 48 80
e 48 88
e 49 50
e 49 51
e 49 55
e 49 56
e 49 57
e 49 59
e 49 61
e 49 63
e 49 64
e 49 65
e 49 68
e 49 69
e 49 71
e 49 74
e 49 75
e 49 77
e 49 78
e 49 79
e 49 80
e 49 88
e 49 101
e 49 116
e 50 51
e 50 55
e 50 56
e 50 57
e 50 59
e 50 61
e 50 63
e 50 64
e 50 65
e 50 68
e 50 69
e 50 71
e 50 74
e 50 75
e 50 77
e 50 78
e 50 79
e 50 80
e 50 88
e 51 55
e 51 56
e 51 59
e 51 60
e 51 61
e 51 62
e 51 63
e 51 64
e 51 65
e 51 67
e 51 71
e 51 74
e 51 77
e 51 78
e 51 79
e 51 80
e 52 53
e 52 54
e 52 57
e 52 58
e 52 60
e 52 66
e 52 68
e 52 69
e 52 70
e 52 72
e 52 73
e 52 75
e 52 76
e 52 81
e 52 83
e 52 85
e 52 86
e 52 87
e 52 88
e 52 91
e 52 92
e 52 96
e 52 97
e 52 100
e 52 101
e 53 54
e 53 58
e 53 60
e 53 62
e 53 66
e 53 67
e 53 70
e 53 72
e 53 73
e 53 75
e 53 76
e 53 81
e 53 82
e 53 83
e 53 84
e 53 85
e 53 86
e 53 87
e 53 91
e 53 92
e 53 96
e 53 97
e 53 100
e 54 58
e 54 60
e 54 62
e 54 66
e 54 67
e 54 70
e 54 72
e 54 73
e 54 76
e 54 81
e 54 82
e 54 83
e 54 84
e 54 85
e 54 86
e 54 87
e 54 89
e 54 91
e 54 94
e 54 95
e 54 99
e 54 112
e 55 56
e 55 57
e 55 59
e 55 61
e 55 63
e 55 64
e 55 65
e 55 68
e 55 69
e 55 71
e 55 74
e 55 75
e 55 77
e 55 78
e 55 79
e 55 80
e 55 88
e 55 101
e 55 116
e 56 57
e 56 59
e 56 61
e 56 62
e 56 63
e 56 64
e 56 65
e 56 71
e 56 74
e 56 77
e 56 78
e 56 79
e 56 80
e 57 59
e 57 61
e 57 63
e 57 64
e 57 65
e 57 66
e 57 68
e 57 69
e 57 71
e 57 75
e 57 77
e 57 78
e 57 79
e 57 81
e 57 88
e 57 101
e 57 116
e 58 60
e 58 62
e 58 66
e 58 67
e 58 70
e 58 72
e 58 73
e 58 76
e 58 81
e 58 82
e 58 83
e 58 84
e 58 85
e 58 86
e 58 87
e 58 89
e 58 91
e 58 92
e 58 94
e 58 95
e 58 96
e 58 97
e 58 100
e 59 61
e 59 63
e 59 64
e 59 65
e 59 68
e 59 69
e 59 71
e 59 74
e 59 75
e 59 77
e 59 78
e 59 79
e 59 80
e 59 88
e 59 101
e 60 62
e 60 67
e 60 70
e 60 72
e 60 73
e 60 76
e 60 82
e 60 83
e 60 84
e 60 85
e 60 94
e 60 95
e 60 99
e 60 112
e 61 63
e 61 64
e 61 65
e 61 68
e 61 69
e 61 71
e 61 74
e 61 77
e 61 78
e 61 79
e 61 80
e 61 88
e 62 67
e 62 70
e 62 76
e 62 82
e 62 84
e 62 95
e 62 99
e 62 112
e 63 64
e 63 65
e 63 68
e 63 71
e 63 74
e 63 77
e 63 78
e 63 79
e 63 80
e 64 65
e 64 71
e 64 74
e 64 77
e 64 78
e 64 79
e 64 80
e 65 68
e 65 69
e 65 71
e 65 74
e 65 77
e 65 78
e 65 79
e 65 80
e 66 68
e 66 69
e 66 70
e 66 72
e 66 73
e 66 75
e 66 81
e 66 83
e 66 85
e 66 86
e 66 87
e 66 88
e 66 91
e 66 92
e 66 96
e 66 97
e 66 100
e 66 101
e 66 116
e 67 70
e 67 72
e 67 73
e 67 76
e 67 82
e 67 83
e 67 84
e 67 85
e 67 94
e 67 95
e 67 99
e 67 112
e 68 69
e 68 73
e 68 75
e 68 81
e 68 88
e 68 101
e 68 116
e 69 73
e 69 75
e 69 81
e 69 87
e 69 88
e 69 100
e 69 101
e 69 116
e 70 72
e 70 73
e 70 76
e 70 81
e 70 82
e 70 83
e 70 84
e 70 85
e 70 86
e 70 87
e 70 89
e 70 90
e 70 91
e 70 92
e 70 93
e 70 94
e 70 95
e 70 96
e 70 97
e 70 98
e 70 99
e 70 107
e 70 112
e 71 74
e 71 77
e 71 78
e 71 79
e 71 80
e 72 73
e 72 75
e 72 76
e 72 81
e 72 82
e 72 83
e 72 84
e 72 85
e 72 86
e 72 87
e 72 91
e 72 92
e 72 96
e 72 97
e 72 100
e 73 75
e 73 76
e 73 81
e 73 82
e 73 83
e 73 85
e 73 86
e 73 87
e 73 91
e 73 92
e 73 96
e 73 97
e 73 100
e 73 107
e 74 77
e 74 78
e 74 79
e 74 80
e 75 81
e 75 87
e 75 88
e 75 97
e 75 100
e 75 101
e 75 116
e 76 82
e 76 83
e 76 84
e 76 85
e 76 86
e 76 89
e 76 94
e 76 95
e 76 99
e 76 112
e 77 78
e 77 79
e 77 80
e 78 79
e 78 80
e 79 80
e 81 83
e 81 85
e 81 86
e 81 87
e 81 88
e 81 91
e 81 92
e 81 96
e 81 97
e 81 100
e 82 83
e 82 84
e 82 85
e 82 86
e 82 87
e 82 89
e 82 90
e 82 91
e 82 92
e 82 93
e 82 94
e 82 95
e 82 96
e 82 98
e 82 99
e 82 112
e 83 85
e 83 86
e 83 87
e 83 89
e 83 90
e 83 91
e 83 92
e 83 93
e 83 94
e 83 96
e 83 97
e 83 98
e 83 99
e 83 100
e 83 107
e 83 111
e 84 86
e 84 89
e 84 94
e 84 95
e 84 99
e 84 112
e 85 86
e 85 87
e 85 91
e 85 92
e 85 96
e 85 97
e 85 100
e 85 107
e 86 87
e 86 89
e 86 90
e 86 91
e 86 92
e 86 93
e 86 94
e 86 96
e 86 97
e 86 98
e 86 99
e 86 107
e 86 111
e 87 91
e 87 92
e 87 96
e 87 97
e 87 100
e 87 107
e 88 101
e 88 116
e 89 90
e 89 91
e 89 92
e 89 93
e 89 94
e 89 98
e 89 99
e 89 102
e 89 103
e 89 104
e 89 105
e 89 106
e 89 107
e 89 108
e 89 109
e 89 111
e 89 112
e 89 113
e 89 114
e 89 115
e 89 118
e 89 119
e 89 120
e 89 121
e 90 91
e 90 92
e 90 93
e 90 94
e 90 98
e 90 99
e 90 102
e 90 103
e 90 104
e 90 105
e 90 106
e 90 107
e 90 108
e 90 109
e 90 110
e 90 111
e 90 113
e 90 114
e 90 115
e 90 117
e 90 118
e 90 119
e 90 120
e 90 121
e 90 122
e 90 123
e 90 124
e 91 92
e 91 93
e 91 94
e 91 96
e 91 97
e 91 98
e 91 100
e 91 107
e 91 111
e 91 119
e 91 121
e 91 123
e 92 94
e 92 96
e 92 97
e 92 98
e 92 100
e 92 107
e 92 111
e 92 119
e 92 121
e 93 94
e 93 98
e 93 99
e 93 102
e 93 103
e 93 104
e 93 105
e 93 106
e 93 108
e 93 109
e 93 110
e 93 111
e 93 112
e 93 113
e 93 114
e 93 115
e 93 117
e 93 118
e 93 119
e 93 120
e 93 121
e 93 122
e 93 123
e 93 124
e 94 95
e 94 98
e 94 99
e 94 112
e 94 114
e 94 115
e 94 118
e 94 120
e 94 122
e 95 99
e 95 112
e 96 97
e 96 100
e 96 107
e 97 100
e 97 107
e 98 102
e 98 103
e 98 104
e 98 105
e 98 106
e 98 107
e 98 108
e 98 109
e 98 110
e 98 111
e 98 114
e 98 115
e 98 117
e 98 118
e 98 119
e 98 121
e 98 123
e 99 112
e 99 114
e 101 116
e 102 103
e 102 104
e 102 105
e 102 106
e 102 107
e 102 108
e 102 109
e 102 110
e 102 111
e 102 113
e 102 114
e 102 115
e 102 117
e 102 118
e 102 119
e 102 120
e 102 121
e 102 122
e 102 123
e 102 124
e 103 104
e 103 105
e 103 106
e 103 107
e 103 108
e 103 109
e 103 110
e 103 111
e 103 113
e 103 114
e 103 115
e 103 117
e 103 118
e 103 119
e 103 120
e 103 121
e 103 122
e 103 123
e 103 124
e 104 105
e 104 106
e 104 107
e 104 108
e 104 109
e 104 110
e 104 111
e 104 113
e 104 114
e 104 115
e 104 117
e 104 118
e 104 119
e 104 120
e 104 121
e 104 122
e 104 123
e 104 124
e 105 106
e 105 107
e 105 108
e 105 109
e 105 110
e 105 111
e 105 113
e 105 114
e 105 115
e 105 117
e 105 118
e 105 119
e 105 120
e 105 121
e 105 122
e 105 123
e 105 124
e 106 107
e 106 108
e 106 109
e 106 110
e 106 111
e 106 113
e 106 114
e 106 115
e 106 117
e 106 118
e 106 119
e 106 120
e 106 121
e 106 122
e 106 123
e 106 124
e 107 108
e 107 111
e 107 117
e 107 119
e 107 121
e 107 123
e 108 109
e 108 110
e 108 111
e 108 113
e 108 114
e 108 115
e 108 117
e 108 118
e 108 119
e 108 120
e 108 121
e 108 122
e 108 123
e 108 124
e 109 110
e 109 111
e 109 113
e 109 114
e 109 115
e 109 117
e 109 118
e 109 119
e 109 120
e 109 121
e 109 122
e 109 123
e 109 124
e 110 111
e 110 113
e 110 114
e 110 115
e 110 117
e 110 118
e 110 119
e 110 120
e 110 121
e 110 122
e 110 123
e 110 124
e 111 113
e 111 117
e 111 119
e 111 121
e 111 123
e 112 114
e 112 115
e 112 120
e 113 114
e 113 115
e 113 117
e 113 118
e 113 119
e 113 120
e 113 122
e 113 123
e 113 124
e 114 115
e 114 118
e 114 120
e 114 122
e 114 124
e 115 117
e 115 118
e 115 120
e 115 122
e 115 124
e 117 118
e 117 119
e 117 121
e 117 122
e 117 123
e 117 124
e 118 120
e 118 122
e 118 124
e 119 121
e 119 123
e 120 122
e 120 124
e 121 123
e 122 124
